[2026-03-23T16:00:46.578Z] Pipeline "set_exp_3_exp_3_n022_c004_g005" → 2026_03_23_16_00_46_set_exp_3_exp_3_n022_c004_g005_max.sol
Set parameter WLSAccessID
Set parameter WLSSecret
Set parameter LicenseID to value 2792458
Set parameter LogFile to value "gurobi.log"
Using license file /root/gurobi.lic
Academic license 2792458 - for non-commercial use only - registered to an___@studenti.unipg.it

Gurobi Optimizer version 13.0.1 build v13.0.1rc0 (linux64 - "Ubuntu 24.04.4 LTS")
Copyright (c) 2026, Gurobi Optimization, LLC

Warning: Duplicate section found (read 'binary') - Is a variable name equal to an LP file format keyword?
Warning: Duplicate section found (read 'binary') - Is a variable name equal to an LP file format keyword?
Warning: Duplicate section found (read 'binary') - Is a variable name equal to an LP file format keyword?
Warning: Duplicate section found (read 'binary') - Is a variable name equal to an LP file format keyword?
Warning: Duplicate section found (read 'binary') - Is a variable name equal to an LP file format keyword?
Warning: Duplicate section found (read 'binary') - Is a variable name equal to an LP file format keyword?
Warning: Duplicate section found (read 'binary') - Is a variable name equal to an LP file format keyword?
Warning: Duplicate section found (read 'binary') - Is a variable name equal to an LP file format keyword?
Warning: Duplicate section found (read 'binary') - Is a variable name equal to an LP file format keyword?
Warning: Duplicate section found (read 'binary') - Is a variable name equal to an LP file format keyword?
Warning: Further warnings of this type will be omitted.
Read LP format model from file /root/bgw/data/uploads/2026_03_23_16_00_46_set_exp_3_exp_3_n022_c004_g005_max.lp
Reading time = 0.01 seconds
: 3486 rows, 340 columns, 10511 nonzeros

Using Gurobi shared library /opt/gurobi1301/linux64/lib/libgurobi.so.13.0.1

CPU model: AMD EPYC-Genoa Processor, instruction set [SSE2|AVX|AVX2|AVX512]
Thread count: 16 physical cores, 16 logical processors, using up to 16 threads

Academic license 2792458 - for non-commercial use only - registered to an___@studenti.unipg.it
Optimize a model with 3486 rows, 340 columns and 10511 nonzeros (Max)
Model fingerprint: 0xcc6aa3e5
Model has 8 linear objective coefficients
Variable types: 30 continuous, 310 integer (310 binary)
Coefficient statistics:
  Matrix range     [1e+00, 2e+01]
  Objective range  [1e+00, 1e+00]
  Bounds range     [1e+00, 1e+00]
  RHS range        [1e+00, 2e+01]

Found heuristic solution: objective 8.0000000
Presolve removed 371 rows and 87 columns
Presolve time: 0.02s
Presolved: 3115 rows, 253 columns, 9516 nonzeros
Variable types: 0 continuous, 253 integer (244 binary)
Found heuristic solution: objective 10.0000000

Root relaxation: objective 3.500000e+01, 289 iterations, 0.01 seconds (0.01 work units)

    Nodes    |    Current Node    |     Objective Bounds      |     Work
 Expl Unexpl |  Obj  Depth IntInf | Incumbent    BestBd   Gap | It/Node Time

     0     0   35.00000    0   44   10.00000   35.00000   250%     -    0s
H    0     0                      16.0000000   35.00000   119%     -    0s
H    0     0                      17.0000000   35.00000   106%     -    0s
H    0     0                      18.0000000   35.00000  94.4%     -    0s
H    0     0                      19.0000000   35.00000  84.2%     -    0s
H    0     0                      21.0000000   35.00000  66.7%     -    0s
H    0     0                      22.0000000   35.00000  59.1%     -    0s
H    0     0                      23.0000000   35.00000  52.2%     -    0s
     0     0   35.00000    0   47   23.00000   35.00000  52.2%     -    0s
     0     0   35.00000    0   47   23.00000   35.00000  52.2%     -    0s
     0     0   35.00000    0   44   23.00000   35.00000  52.2%     -    0s
     0     0   35.00000    0   22   23.00000   35.00000  52.2%     -    0s
     0     0   35.00000    0   26   23.00000   35.00000  52.2%     -    0s
     0     0   35.00000    0   23   23.00000   35.00000  52.2%     -    0s
     0     0   35.00000    0   22   23.00000   35.00000  52.2%     -    0s
     0     0   35.00000    0   22   23.00000   35.00000  52.2%     -    0s
     0     0   34.80000    0   24   23.00000   34.80000  51.3%     -    0s
     0     0   34.80000    0   23   23.00000   34.80000  51.3%     -    0s
     0     0   34.00000    0   22   23.00000   34.00000  47.8%     -    0s
     0     0   34.00000    0   23   23.00000   34.00000  47.8%     -    0s
     0     0   34.00000    0   23   23.00000   34.00000  47.8%     -    0s
     0     0   34.00000    0   22   23.00000   34.00000  47.8%     -    0s
     0     0   34.00000    0   22   23.00000   34.00000  47.8%     -    0s
     0     0   34.00000    0   22   23.00000   34.00000  47.8%     -    0s
     0     0   34.00000    0   20   23.00000   34.00000  47.8%     -    0s
     0     2   34.00000    0   19   23.00000   34.00000  47.8%     -    0s

Cutting planes:
  Cover: 6
  MIR: 6
  Inf proof: 6
  Zero half: 4

Explored 758 nodes (40506 simplex iterations) in 0.72 seconds (0.71 work units)
Thread count was 16 (of 16 available processors)

Solution count 9: 23 22 21 ... 8

Optimal solution found (tolerance 1.00e-04)
Best objective 2.300000000000e+01, best bound 2.300000000000e+01, gap 0.0000%

Wrote result file '/root/bgw/data/results/2026_03_23_16_00_46_set_exp_3_exp_3_n022_c004_g005_max.sol'

